Minimize
	value: tt

Subject to
tt + 1000 s_1_1 > 0.0
tt - t_1_1 - 1000.677575 s_1_1  + 0.677575 s_1_7  > -981.877306
tt + 1000 s_2_1 > 0.0
tt - t_2_1 - 1000.967838 s_2_1  + 0.967838 s_2_7  > -985.504061
tt + 1000 s_1_2 > 0.0
tt - t_1_2 - 1000.677575 s_1_2  + 0.677575 s_1_8  > -980.152782
tt + 1000 s_2_2 > 0.0
tt - t_2_2 - 1000.967838 s_2_2  + 0.967838 s_2_8  > -983.194922
tt + 1000 s_1_3 > 0.0
tt - t_1_3 - 1000.677575 s_1_3  + 0.677575 s_1_8  > -969.863644
tt + 1000 s_2_3 > 0.0
tt - t_2_3 - 1000.967838 s_2_3  + 0.967838 s_2_8  > -977.932600
tt + 1000 s_1_4 > 0.0
tt - t_1_4 - 1001.355150 s_1_4  + 0.677575 s_1_3  + 0.677575 s_1_8  > -983.768902
tt + 1000 s_2_4 > 0.0
tt - t_2_4 - 1001.935676 s_2_4  + 0.967838 s_2_3  + 0.967838 s_2_8  > -985.551325
tt + 1000 s_1_5 > 0.0
tt - t_1_5 - 1001.355150 s_1_5  + 0.677575 s_1_7  + 0.677575 s_1_8  > -985.539057
tt + 1000 s_2_5 > 0.0
tt - t_2_5 - 1001.935676 s_2_5  + 0.967838 s_2_7  + 0.967838 s_2_8  > -988.176400
tt + 1000 s_1_6 > 0.0
tt - t_1_6 - 1003.387875 s_1_6  + 0.677575 s_1_4  + 0.677575 s_1_5  + 0.677575 s_1_2  + 0.677575 s_1_3  + 0.677575 s_1_1  > -997.007000
tt + 1000 s_2_6 > 0.0
tt - t_2_6 - 1004.839190 s_2_6  + 0.967838 s_2_4  + 0.967838 s_2_5  + 0.967838 s_2_2  + 0.967838 s_2_3  + 0.967838 s_2_1  > -970.033400
tt + 1000 s_1_7 > 0.0
tt - t_1_7 - 1000.000000 s_1_7  > -961.630650
tt + 1000 s_2_7 > 0.0
tt - t_2_7 - 1000.000000 s_2_7  > -984.084878
tt + 1000 s_1_8 > 0.0
tt - t_1_8 - 1000.000000 s_1_8  > -961.371633
tt + 1000 s_2_8 > 0.0
tt - t_2_8 - 1000.000000 s_2_8  > -984.072300
s_1_1 + s_2_1 = 1
s_1_2 + s_2_2 = 1
s_1_3 + s_2_3 = 1
s_1_4 + s_2_4 = 1
s_1_5 + s_2_5 = 1
s_1_6 + s_2_6 = 1
s_1_7 + s_2_7 = 1
s_1_8 + s_2_8 = 1
s_1_1 + s_1_2 + 1000 r_1_1_2 >= 2
- s_1_1 - s_1_2 - 1000 r_1_1_2 >= -1001
t_1_1 - t_1_2 - 1000.000000 u_1_1_2 - 0.677575 s_1_2  + 0.677575 s_1_8  + 2000.000000 r_1_1_2 > -980.152782
s_2_1 + s_2_2 + 1000 r_2_1_2 >= 2
- s_2_1 - s_2_2 - 1000 r_2_1_2 >= -1001
t_2_1 - t_2_2 - 1000.000000 u_2_1_2 - 0.967838 s_2_2  + 0.967838 s_2_8  + 2000.000000 r_2_1_2 > -983.194922
s_1_1 + s_1_3 + 1000 r_1_1_3 >= 2
- s_1_1 - s_1_3 - 1000 r_1_1_3 >= -1001
t_1_1 - t_1_3 - 1000.000000 u_1_1_3 - 0.677575 s_1_3  + 0.677575 s_1_8  + 2000.000000 r_1_1_3 > -969.863644
s_2_1 + s_2_3 + 1000 r_2_1_3 >= 2
- s_2_1 - s_2_3 - 1000 r_2_1_3 >= -1001
t_2_1 - t_2_3 - 1000.000000 u_2_1_3 - 0.967838 s_2_3  + 0.967838 s_2_8  + 2000.000000 r_2_1_3 > -977.932600
s_1_1 + s_1_4 + 1000 r_1_1_4 >= 2
- s_1_1 - s_1_4 - 1000 r_1_1_4 >= -1001
t_1_1 - t_1_4 - 1000.000000 u_1_1_4 - 1.355150 s_1_4  + 0.677575 s_1_3  + 0.677575 s_1_8  + 2000.000000 r_1_1_4 > -983.768902
s_2_1 + s_2_4 + 1000 r_2_1_4 >= 2
- s_2_1 - s_2_4 - 1000 r_2_1_4 >= -1001
t_2_1 - t_2_4 - 1000.000000 u_2_1_4 - 1.935676 s_2_4  + 0.967838 s_2_3  + 0.967838 s_2_8  + 2000.000000 r_2_1_4 > -985.551325
s_1_1 + s_1_5 + 1000 r_1_1_5 >= 2
- s_1_1 - s_1_5 - 1000 r_1_1_5 >= -1001
t_1_1 - t_1_5 - 1000.000000 u_1_1_5 - 1.355150 s_1_5  + 0.677575 s_1_7  + 0.677575 s_1_8  + 2000.000000 r_1_1_5 > -985.539057
s_2_1 + s_2_5 + 1000 r_2_1_5 >= 2
- s_2_1 - s_2_5 - 1000 r_2_1_5 >= -1001
t_2_1 - t_2_5 - 1000.000000 u_2_1_5 - 1.935676 s_2_5  + 0.967838 s_2_7  + 0.967838 s_2_8  + 2000.000000 r_2_1_5 > -988.176400
t_1_6 - t_1_1 - 1000.677575 s_1_1  + 0.677575 s_1_7  > -981.877306
t_1_6 - t_2_1 - 1000.967838 s_2_1  + 0.967838 s_2_7  > -985.504061
t_2_6 - t_1_1 - 1000.677575 s_1_1  + 0.677575 s_1_7  > -981.877306
t_2_6 - t_2_1 - 1000.967838 s_2_1  + 0.967838 s_2_7  > -985.504061
t_1_1 - t_1_7 - 1000.000000 s_1_7  > -961.630650
t_1_1 - t_2_7 - 1000.000000 s_2_7  > -984.084878
t_2_1 - t_1_7 - 1000.000000 s_1_7  > -961.630650
t_2_1 - t_2_7 - 1000.000000 s_2_7  > -984.084878
s_1_1 + s_1_8 + 1000 r_1_1_8 >= 2
- s_1_1 - s_1_8 - 1000 r_1_1_8 >= -1001
t_1_1 - t_1_8 - 1000.000000 u_1_1_8 - 0.000000 s_1_8  + 2000.000000 r_1_1_8 > -961.371633
s_2_1 + s_2_8 + 1000 r_2_1_8 >= 2
- s_2_1 - s_2_8 - 1000 r_2_1_8 >= -1001
t_2_1 - t_2_8 - 1000.000000 u_2_1_8 - 0.000000 s_2_8  + 2000.000000 r_2_1_8 > -984.072300
s_1_2 + s_1_1 + 1000 r_1_1_2 >= 2
- s_1_2 - s_1_1 - 1000 r_1_1_2 >= -1001
t_1_2 - t_1_1 + 1000.000000 u_1_1_2 - 0.677575 s_1_1  + 0.677575 s_1_7  + 2000.000000 r_1_1_2 > 18.122694
s_2_2 + s_2_1 + 1000 r_2_1_2 >= 2
- s_2_2 - s_2_1 - 1000 r_2_1_2 >= -1001
t_2_2 - t_2_1 + 1000.000000 u_2_1_2 - 0.967838 s_2_1  + 0.967838 s_2_7  + 2000.000000 r_2_1_2 > 14.495939
s_1_2 + s_1_3 + 1000 r_1_2_3 >= 2
- s_1_2 - s_1_3 - 1000 r_1_2_3 >= -1001
t_1_2 - t_1_3 - 1000.000000 u_1_2_3 - 0.677575 s_1_3  + 0.677575 s_1_8  + 2000.000000 r_1_2_3 > -969.863644
s_2_2 + s_2_3 + 1000 r_2_2_3 >= 2
- s_2_2 - s_2_3 - 1000 r_2_2_3 >= -1001
t_2_2 - t_2_3 - 1000.000000 u_2_2_3 - 0.967838 s_2_3  + 0.967838 s_2_8  + 2000.000000 r_2_2_3 > -977.932600
s_1_2 + s_1_4 + 1000 r_1_2_4 >= 2
- s_1_2 - s_1_4 - 1000 r_1_2_4 >= -1001
t_1_2 - t_1_4 - 1000.000000 u_1_2_4 - 1.355150 s_1_4  + 0.677575 s_1_3  + 0.677575 s_1_8  + 2000.000000 r_1_2_4 > -983.768902
s_2_2 + s_2_4 + 1000 r_2_2_4 >= 2
- s_2_2 - s_2_4 - 1000 r_2_2_4 >= -1001
t_2_2 - t_2_4 - 1000.000000 u_2_2_4 - 1.935676 s_2_4  + 0.967838 s_2_3  + 0.967838 s_2_8  + 2000.000000 r_2_2_4 > -985.551325
s_1_2 + s_1_5 + 1000 r_1_2_5 >= 2
- s_1_2 - s_1_5 - 1000 r_1_2_5 >= -1001
t_1_2 - t_1_5 - 1000.000000 u_1_2_5 - 1.355150 s_1_5  + 0.677575 s_1_7  + 0.677575 s_1_8  + 2000.000000 r_1_2_5 > -985.539057
s_2_2 + s_2_5 + 1000 r_2_2_5 >= 2
- s_2_2 - s_2_5 - 1000 r_2_2_5 >= -1001
t_2_2 - t_2_5 - 1000.000000 u_2_2_5 - 1.935676 s_2_5  + 0.967838 s_2_7  + 0.967838 s_2_8  + 2000.000000 r_2_2_5 > -988.176400
t_1_6 - t_1_2 - 1000.677575 s_1_2  + 0.677575 s_1_8  > -980.152782
t_1_6 - t_2_2 - 1000.967838 s_2_2  + 0.967838 s_2_8  > -983.194922
t_2_6 - t_1_2 - 1000.677575 s_1_2  + 0.677575 s_1_8  > -980.152782
t_2_6 - t_2_2 - 1000.967838 s_2_2  + 0.967838 s_2_8  > -983.194922
s_1_2 + s_1_7 + 1000 r_1_2_7 >= 2
- s_1_2 - s_1_7 - 1000 r_1_2_7 >= -1001
t_1_2 - t_1_7 - 1000.000000 u_1_2_7 - 0.000000 s_1_7  + 2000.000000 r_1_2_7 > -961.630650
s_2_2 + s_2_7 + 1000 r_2_2_7 >= 2
- s_2_2 - s_2_7 - 1000 r_2_2_7 >= -1001
t_2_2 - t_2_7 - 1000.000000 u_2_2_7 - 0.000000 s_2_7  + 2000.000000 r_2_2_7 > -984.084878
t_1_2 - t_1_8 - 1000.000000 s_1_8  > -961.371633
t_1_2 - t_2_8 - 1000.000000 s_2_8  > -984.072300
t_2_2 - t_1_8 - 1000.000000 s_1_8  > -961.371633
t_2_2 - t_2_8 - 1000.000000 s_2_8  > -984.072300
s_1_3 + s_1_1 + 1000 r_1_1_3 >= 2
- s_1_3 - s_1_1 - 1000 r_1_1_3 >= -1001
t_1_3 - t_1_1 + 1000.000000 u_1_1_3 - 0.677575 s_1_1  + 0.677575 s_1_7  + 2000.000000 r_1_1_3 > 18.122694
s_2_3 + s_2_1 + 1000 r_2_1_3 >= 2
- s_2_3 - s_2_1 - 1000 r_2_1_3 >= -1001
t_2_3 - t_2_1 + 1000.000000 u_2_1_3 - 0.967838 s_2_1  + 0.967838 s_2_7  + 2000.000000 r_2_1_3 > 14.495939
s_1_3 + s_1_2 + 1000 r_1_2_3 >= 2
- s_1_3 - s_1_2 - 1000 r_1_2_3 >= -1001
t_1_3 - t_1_2 + 1000.000000 u_1_2_3 - 0.677575 s_1_2  + 0.677575 s_1_8  + 2000.000000 r_1_2_3 > 19.847218
s_2_3 + s_2_2 + 1000 r_2_2_3 >= 2
- s_2_3 - s_2_2 - 1000 r_2_2_3 >= -1001
t_2_3 - t_2_2 + 1000.000000 u_2_2_3 - 0.967838 s_2_2  + 0.967838 s_2_8  + 2000.000000 r_2_2_3 > 16.805078
t_1_4 - t_1_3 - 1000.677575 s_1_3  + 0.677575 s_1_8  > -969.863644
t_1_4 - t_2_3 - 1000.967838 s_2_3  + 0.967838 s_2_8  > -977.932600
t_2_4 - t_1_3 - 1000.677575 s_1_3  + 0.677575 s_1_8  > -969.863644
t_2_4 - t_2_3 - 1000.967838 s_2_3  + 0.967838 s_2_8  > -977.932600
s_1_3 + s_1_5 + 1000 r_1_3_5 >= 2
- s_1_3 - s_1_5 - 1000 r_1_3_5 >= -1001
t_1_3 - t_1_5 - 1000.000000 u_1_3_5 - 1.355150 s_1_5  + 0.677575 s_1_7  + 0.677575 s_1_8  + 2000.000000 r_1_3_5 > -985.539057
s_2_3 + s_2_5 + 1000 r_2_3_5 >= 2
- s_2_3 - s_2_5 - 1000 r_2_3_5 >= -1001
t_2_3 - t_2_5 - 1000.000000 u_2_3_5 - 1.935676 s_2_5  + 0.967838 s_2_7  + 0.967838 s_2_8  + 2000.000000 r_2_3_5 > -988.176400
t_1_6 - t_1_3 - 1000.677575 s_1_3  + 0.677575 s_1_8  > -969.863644
t_1_6 - t_2_3 - 1000.967838 s_2_3  + 0.967838 s_2_8  > -977.932600
t_2_6 - t_1_3 - 1000.677575 s_1_3  + 0.677575 s_1_8  > -969.863644
t_2_6 - t_2_3 - 1000.967838 s_2_3  + 0.967838 s_2_8  > -977.932600
s_1_3 + s_1_7 + 1000 r_1_3_7 >= 2
- s_1_3 - s_1_7 - 1000 r_1_3_7 >= -1001
t_1_3 - t_1_7 - 1000.000000 u_1_3_7 - 0.000000 s_1_7  + 2000.000000 r_1_3_7 > -961.630650
s_2_3 + s_2_7 + 1000 r_2_3_7 >= 2
- s_2_3 - s_2_7 - 1000 r_2_3_7 >= -1001
t_2_3 - t_2_7 - 1000.000000 u_2_3_7 - 0.000000 s_2_7  + 2000.000000 r_2_3_7 > -984.084878
t_1_3 - t_1_8 - 1000.000000 s_1_8  > -961.371633
t_1_3 - t_2_8 - 1000.000000 s_2_8  > -984.072300
t_2_3 - t_1_8 - 1000.000000 s_1_8  > -961.371633
t_2_3 - t_2_8 - 1000.000000 s_2_8  > -984.072300
s_1_4 + s_1_1 + 1000 r_1_1_4 >= 2
- s_1_4 - s_1_1 - 1000 r_1_1_4 >= -1001
t_1_4 - t_1_1 + 1000.000000 u_1_1_4 - 0.677575 s_1_1  + 0.677575 s_1_7  + 2000.000000 r_1_1_4 > 18.122694
s_2_4 + s_2_1 + 1000 r_2_1_4 >= 2
- s_2_4 - s_2_1 - 1000 r_2_1_4 >= -1001
t_2_4 - t_2_1 + 1000.000000 u_2_1_4 - 0.967838 s_2_1  + 0.967838 s_2_7  + 2000.000000 r_2_1_4 > 14.495939
s_1_4 + s_1_2 + 1000 r_1_2_4 >= 2
- s_1_4 - s_1_2 - 1000 r_1_2_4 >= -1001
t_1_4 - t_1_2 + 1000.000000 u_1_2_4 - 0.677575 s_1_2  + 0.677575 s_1_8  + 2000.000000 r_1_2_4 > 19.847218
s_2_4 + s_2_2 + 1000 r_2_2_4 >= 2
- s_2_4 - s_2_2 - 1000 r_2_2_4 >= -1001
t_2_4 - t_2_2 + 1000.000000 u_2_2_4 - 0.967838 s_2_2  + 0.967838 s_2_8  + 2000.000000 r_2_2_4 > 16.805078
s_1_4 + s_1_5 + 1000 r_1_4_5 >= 2
- s_1_4 - s_1_5 - 1000 r_1_4_5 >= -1001
t_1_4 - t_1_5 - 1000.000000 u_1_4_5 - 1.355150 s_1_5  + 0.677575 s_1_7  + 0.677575 s_1_8  + 2000.000000 r_1_4_5 > -985.539057
s_2_4 + s_2_5 + 1000 r_2_4_5 >= 2
- s_2_4 - s_2_5 - 1000 r_2_4_5 >= -1001
t_2_4 - t_2_5 - 1000.000000 u_2_4_5 - 1.935676 s_2_5  + 0.967838 s_2_7  + 0.967838 s_2_8  + 2000.000000 r_2_4_5 > -988.176400
t_1_6 - t_1_4 - 1001.355150 s_1_4  + 0.677575 s_1_3  + 0.677575 s_1_8  > -983.768902
t_1_6 - t_2_4 - 1001.935676 s_2_4  + 0.967838 s_2_3  + 0.967838 s_2_8  > -985.551325
t_2_6 - t_1_4 - 1001.355150 s_1_4  + 0.677575 s_1_3  + 0.677575 s_1_8  > -983.768902
t_2_6 - t_2_4 - 1001.935676 s_2_4  + 0.967838 s_2_3  + 0.967838 s_2_8  > -985.551325
s_1_4 + s_1_7 + 1000 r_1_4_7 >= 2
- s_1_4 - s_1_7 - 1000 r_1_4_7 >= -1001
t_1_4 - t_1_7 - 1000.000000 u_1_4_7 - 0.000000 s_1_7  + 2000.000000 r_1_4_7 > -961.630650
s_2_4 + s_2_7 + 1000 r_2_4_7 >= 2
- s_2_4 - s_2_7 - 1000 r_2_4_7 >= -1001
t_2_4 - t_2_7 - 1000.000000 u_2_4_7 - 0.000000 s_2_7  + 2000.000000 r_2_4_7 > -984.084878
t_1_4 - t_1_8 - 1000.000000 s_1_8  > -961.371633
t_1_4 - t_2_8 - 1000.000000 s_2_8  > -984.072300
t_2_4 - t_1_8 - 1000.000000 s_1_8  > -961.371633
t_2_4 - t_2_8 - 1000.000000 s_2_8  > -984.072300
s_1_5 + s_1_1 + 1000 r_1_1_5 >= 2
- s_1_5 - s_1_1 - 1000 r_1_1_5 >= -1001
t_1_5 - t_1_1 + 1000.000000 u_1_1_5 - 0.677575 s_1_1  + 0.677575 s_1_7  + 2000.000000 r_1_1_5 > 18.122694
s_2_5 + s_2_1 + 1000 r_2_1_5 >= 2
- s_2_5 - s_2_1 - 1000 r_2_1_5 >= -1001
t_2_5 - t_2_1 + 1000.000000 u_2_1_5 - 0.967838 s_2_1  + 0.967838 s_2_7  + 2000.000000 r_2_1_5 > 14.495939
s_1_5 + s_1_2 + 1000 r_1_2_5 >= 2
- s_1_5 - s_1_2 - 1000 r_1_2_5 >= -1001
t_1_5 - t_1_2 + 1000.000000 u_1_2_5 - 0.677575 s_1_2  + 0.677575 s_1_8  + 2000.000000 r_1_2_5 > 19.847218
s_2_5 + s_2_2 + 1000 r_2_2_5 >= 2
- s_2_5 - s_2_2 - 1000 r_2_2_5 >= -1001
t_2_5 - t_2_2 + 1000.000000 u_2_2_5 - 0.967838 s_2_2  + 0.967838 s_2_8  + 2000.000000 r_2_2_5 > 16.805078
s_1_5 + s_1_3 + 1000 r_1_3_5 >= 2
- s_1_5 - s_1_3 - 1000 r_1_3_5 >= -1001
t_1_5 - t_1_3 + 1000.000000 u_1_3_5 - 0.677575 s_1_3  + 0.677575 s_1_8  + 2000.000000 r_1_3_5 > 30.136356
s_2_5 + s_2_3 + 1000 r_2_3_5 >= 2
- s_2_5 - s_2_3 - 1000 r_2_3_5 >= -1001
t_2_5 - t_2_3 + 1000.000000 u_2_3_5 - 0.967838 s_2_3  + 0.967838 s_2_8  + 2000.000000 r_2_3_5 > 22.067400
s_1_5 + s_1_4 + 1000 r_1_4_5 >= 2
- s_1_5 - s_1_4 - 1000 r_1_4_5 >= -1001
t_1_5 - t_1_4 + 1000.000000 u_1_4_5 - 1.355150 s_1_4  + 0.677575 s_1_3  + 0.677575 s_1_8  + 2000.000000 r_1_4_5 > 16.231098
s_2_5 + s_2_4 + 1000 r_2_4_5 >= 2
- s_2_5 - s_2_4 - 1000 r_2_4_5 >= -1001
t_2_5 - t_2_4 + 1000.000000 u_2_4_5 - 1.935676 s_2_4  + 0.967838 s_2_3  + 0.967838 s_2_8  + 2000.000000 r_2_4_5 > 14.448675
t_1_6 - t_1_5 - 1001.355150 s_1_5  + 0.677575 s_1_7  + 0.677575 s_1_8  > -985.539057
t_1_6 - t_2_5 - 1001.935676 s_2_5  + 0.967838 s_2_7  + 0.967838 s_2_8  > -988.176400
t_2_6 - t_1_5 - 1001.355150 s_1_5  + 0.677575 s_1_7  + 0.677575 s_1_8  > -985.539057
t_2_6 - t_2_5 - 1001.935676 s_2_5  + 0.967838 s_2_7  + 0.967838 s_2_8  > -988.176400
t_1_5 - t_1_7 - 1000.000000 s_1_7  > -961.630650
t_1_5 - t_2_7 - 1000.000000 s_2_7  > -984.084878
t_2_5 - t_1_7 - 1000.000000 s_1_7  > -961.630650
t_2_5 - t_2_7 - 1000.000000 s_2_7  > -984.084878
t_1_5 - t_1_8 - 1000.000000 s_1_8  > -961.371633
t_1_5 - t_2_8 - 1000.000000 s_2_8  > -984.072300
t_2_5 - t_1_8 - 1000.000000 s_1_8  > -961.371633
t_2_5 - t_2_8 - 1000.000000 s_2_8  > -984.072300
s_1_7 + s_1_2 + 1000 r_1_2_7 >= 2
- s_1_7 - s_1_2 - 1000 r_1_2_7 >= -1001
t_1_7 - t_1_2 + 1000.000000 u_1_2_7 - 0.677575 s_1_2  + 0.677575 s_1_8  + 2000.000000 r_1_2_7 > 19.847218
s_2_7 + s_2_2 + 1000 r_2_2_7 >= 2
- s_2_7 - s_2_2 - 1000 r_2_2_7 >= -1001
t_2_7 - t_2_2 + 1000.000000 u_2_2_7 - 0.967838 s_2_2  + 0.967838 s_2_8  + 2000.000000 r_2_2_7 > 16.805078
s_1_7 + s_1_3 + 1000 r_1_3_7 >= 2
- s_1_7 - s_1_3 - 1000 r_1_3_7 >= -1001
t_1_7 - t_1_3 + 1000.000000 u_1_3_7 - 0.677575 s_1_3  + 0.677575 s_1_8  + 2000.000000 r_1_3_7 > 30.136356
s_2_7 + s_2_3 + 1000 r_2_3_7 >= 2
- s_2_7 - s_2_3 - 1000 r_2_3_7 >= -1001
t_2_7 - t_2_3 + 1000.000000 u_2_3_7 - 0.967838 s_2_3  + 0.967838 s_2_8  + 2000.000000 r_2_3_7 > 22.067400
s_1_7 + s_1_4 + 1000 r_1_4_7 >= 2
- s_1_7 - s_1_4 - 1000 r_1_4_7 >= -1001
t_1_7 - t_1_4 + 1000.000000 u_1_4_7 - 1.355150 s_1_4  + 0.677575 s_1_3  + 0.677575 s_1_8  + 2000.000000 r_1_4_7 > 16.231098
s_2_7 + s_2_4 + 1000 r_2_4_7 >= 2
- s_2_7 - s_2_4 - 1000 r_2_4_7 >= -1001
t_2_7 - t_2_4 + 1000.000000 u_2_4_7 - 1.935676 s_2_4  + 0.967838 s_2_3  + 0.967838 s_2_8  + 2000.000000 r_2_4_7 > 14.448675
s_1_7 + s_1_8 + 1000 r_1_7_8 >= 2
- s_1_7 - s_1_8 - 1000 r_1_7_8 >= -1001
t_1_7 - t_1_8 - 1000.000000 u_1_7_8 - 0.000000 s_1_8  + 2000.000000 r_1_7_8 > -961.371633
s_2_7 + s_2_8 + 1000 r_2_7_8 >= 2
- s_2_7 - s_2_8 - 1000 r_2_7_8 >= -1001
t_2_7 - t_2_8 - 1000.000000 u_2_7_8 - 0.000000 s_2_8  + 2000.000000 r_2_7_8 > -984.072300
s_1_8 + s_1_1 + 1000 r_1_1_8 >= 2
- s_1_8 - s_1_1 - 1000 r_1_1_8 >= -1001
t_1_8 - t_1_1 + 1000.000000 u_1_1_8 - 0.677575 s_1_1  + 0.677575 s_1_7  + 2000.000000 r_1_1_8 > 18.122694
s_2_8 + s_2_1 + 1000 r_2_1_8 >= 2
- s_2_8 - s_2_1 - 1000 r_2_1_8 >= -1001
t_2_8 - t_2_1 + 1000.000000 u_2_1_8 - 0.967838 s_2_1  + 0.967838 s_2_7  + 2000.000000 r_2_1_8 > 14.495939
s_1_8 + s_1_7 + 1000 r_1_7_8 >= 2
- s_1_8 - s_1_7 - 1000 r_1_7_8 >= -1001
t_1_8 - t_1_7 + 1000.000000 u_1_7_8 - 0.000000 s_1_7  + 2000.000000 r_1_7_8 > 38.369350
s_2_8 + s_2_7 + 1000 r_2_7_8 >= 2
- s_2_8 - s_2_7 - 1000 r_2_7_8 >= -1001
t_2_8 - t_2_7 + 1000.000000 u_2_7_8 - 0.000000 s_2_7  + 2000.000000 r_2_7_8 > 15.915122
Binary
s_1_1
s_2_1
s_1_2
s_2_2
s_1_3
s_2_3
s_1_4
s_2_4
s_1_5
s_2_5
s_1_6
s_2_6
s_1_7
s_2_7
s_1_8
s_2_8
u_1_1_2
r_1_1_2
u_2_1_2
r_2_1_2
u_1_1_3
r_1_1_3
u_2_1_3
r_2_1_3
u_1_1_4
r_1_1_4
u_2_1_4
r_2_1_4
u_1_1_5
r_1_1_5
u_2_1_5
r_2_1_5
u_1_1_8
r_1_1_8
u_2_1_8
r_2_1_8
u_1_2_3
r_1_2_3
u_2_2_3
r_2_2_3
u_1_2_4
r_1_2_4
u_2_2_4
r_2_2_4
u_1_2_5
r_1_2_5
u_2_2_5
r_2_2_5
u_1_2_7
r_1_2_7
u_2_2_7
r_2_2_7
u_1_3_5
r_1_3_5
u_2_3_5
r_2_3_5
u_1_3_7
r_1_3_7
u_2_3_7
r_2_3_7
u_1_4_5
r_1_4_5
u_2_4_5
r_2_4_5
u_1_4_7
r_1_4_7
u_2_4_7
r_2_4_7
u_1_7_8
r_1_7_8
u_2_7_8
r_2_7_8

End
